cvc5/2402.txt
; cardinality of var565 is 1
; rep: (as @var565_0 var565)
; cardinality of void is 1
; rep: (as @void_0 void)
; cardinality of Iterator is 1
; rep: (as @Iterator_0 Iterator)
; cardinality of ClassObject is 1
; rep: (as @ClassObject_0 ClassObject)
(define-fun var565_getVersion/530152056 () String "")